&FORCE_EVAL
# STRESS_TENSOR ANALYTICAL
 METHOD Quickstep
 &DFT
  BASIS_SET_FILE_NAME ./BASIS
  POTENTIAL_FILE_NAME ./POTENTIAL
  UKS
  CHARGE 0
  &MGRID
   CUTOFF 400
   REL_CUTOFF 40
  &END MGRID
  &QS
   METHOD GPW
   EPS_PGF_ORB 1.0E-12
   EPS_FILTER_MATRIX 0.0E0
  &END QS
   #&AUXILIARY_DENSITY_MATRIX_METHOD
   # METHOD BASIS_PROJECTION
   # ADMM_PURIFICATION_METHOD MO_DIAG
   #&END
  &SCF
   IGNORE_CONVERGENCE_FAILURE TRUE
   EPS_SCF 1.0E-6
   SCF_GUESS ATOMIC
   MAX_SCF 20
   &OT ON
    PRECONDITIONER FULL_SINGLE_INVERSE
    MINIMIZER DIIS
    ENERGY_GAP 0.001
   &END
   &OUTER_SCF
    EPS_SCF 1.0E-5
    MAX_SCF 3
   &END
  &END SCF
  &XC
   &XC_FUNCTIONAL
    &PBE
     SCALE_X 1.0
     SCALE_C 1.0
    &END PBE
   &END XC_FUNCTIONAL
#   &VDW_POTENTIAL
#    POTENTIAL_TYPE PAIR_POTENTIAL
#    &PAIR_POTENTIAL
#     TYPE DFTD3(BJ)
#     PARAMETER_FILE_NAME ./dftd3.dat
#     MOLECULE_CORRECTION TRUE
#     D3BJ_SCALING  1.0 0.4289 0.7875 4.4407
#    &END
#   &END
  &END XC
  &PRINT
#   &V_HARTREE_CUBE
#    &EACH
#     CELL_OPT 1000
#    &END
#    ADD_LAST SYMBOLIC
#    STRIDE 1
#   &END
#   &PDOS
#    NLUMO 100
#   &END PDOS
#   &E_DENSITY_CUBE
#    ADD_LAST SYMBOLIC
#   &END E_DENSITY_CUBE
  &END PRINT
 &END DFT
 &SUBSYS
  &CELL
   A  12.3027765999999996    0.0000000000000000    0.0000000000000000
   B  0.0000000000000000   10.6545170799999998    0.0000000000000000
   C  0.0000000000000000    0.0000000000000000   40.1412929600000012
   PERIODIC XYZ
  &END CELL
  &TOPOLOGY
   COORD_FILE_FORMAT XYZ
   COORD_FILE_NAME new.xyz
  &END TOPOLOGY
 &KIND C
  BASIS_SET DZVP-MOLOPT-SR-GTH
  POTENTIAL GTH-PBE-q4
 &END KIND
 &KIND O
  BASIS_SET DZVP-MOLOPT-SR-GTH
  POTENTIAL GTH-PBE-q6
 &END KIND
 &KIND B
  BASIS_SET DZVP-MOLOPT-SR-GTH
  POTENTIAL GTH-PBE-q3
 &END KIND
 &KIND Ru
  BASIS_SET DZVP-MOLOPT-SR-GTH
  POTENTIAL GTH-PBE-q16
 &END KIND
 &KIND Mo
  BASIS_SET DZVP-MOLOPT-SR-GTH
  POTENTIAL GTH-PBE-q14
 &END KIND
 &KIND Si
  BASIS_SET DZVP-MOLOPT-SR-GTH
  POTENTIAL GTH-PBE-q4
 &END KIND
 &KIND B
  BASIS_SET DZVP-MOLOPT-SR-GTH
  POTENTIAL GTH-PBE-q3
 &END KIND
 &KIND N
  BASIS_SET DZVP-MOLOPT-SR-GTH
  POTENTIAL GTH-PBE-q5
 &END KIND
 &KIND H
  BASIS_SET DZVP-MOLOPT-SR-GTH
  POTENTIAL GTH-PBE-q1
 &END KIND
 &END SUBSYS
&END FORCE_EVAL

&MOTION
 &CELL_OPT
  OPTIMIZER BFGS
  KEEP_SYMMETRY TRUE
  KEEP_ANGLES TRUE
  MAX_ITER 2000
 &END CELL_OPT
 &GEO_OPT
  TYPE MINIMIZATION
  OPTIMIZER BFGS
  MAX_ITER 2000
 &END GEO_OPT
 &MD
 ENSEMBLE NVT
 STEPS 20000
 TIMESTEP 0.5
 TEMPERATURE 300
# &BAROSTAT
#  PRESSURE 1.0
#  TIMECON 1000.0
#  &THERMOSTAT
#   TYPE CSVR
#  &END THERMOSTAT
# &END BAROSTAT
 &THERMOSTAT
    TYPE NOSE
    REGION GLOBAL
    &CSVR
    &END
    &NOSE
      TIMECON 500.0
#      LENGTH  3
#      YOSHIDA 3
#      MTS 2
     &END NOSE
   &END THERMOSTAT
 &END MD
 &PRINT
   &RESTART
     LOG_PRINT_KEY T
       &EACH
         MD 50
       &END EACH
     ADD_LAST NUMERIC
   &END RESTART
#   &TRAJECTORY
#     FORMAT DCD
#     LOG_PRINT_KEY T
#       &EACH
#         MD 1
#       &END EACH
#     ADD_LAST NUMERIC
#   &END TRAJECTORY
#   &VELOCITIES
#     LOG_PRINT_KEY T
#       &EACH
#         MD  1
#       &END EACH
#      ADD_LAST NUMERIC
#   &END VELOCITIES
 &END PRINT
&END MOTION


&GLOBAL
 PROJECT SiC
 PRINT_LEVEL MEDIUM
 RUN_TYPE GEO_OPT
&END GLOBAL

#&EXT_RESTART
# RESTART_FILE_NAME SICDEFECT-1.restart
#&END
